1 100 636 100
0 40.0 50.0 0.0 0.0 0 1236
2 45.0 68.0 90.0 10.0 885 994 1 5
3 45.0 70.0 90.0 30.0 802 893 2 5
4 42.0 66.0 90.0 10.0 25 186 3 5
5 42.0 68.0 90.0 10.0 699 810 4 5
6 42.0 65.0 90.0 10.0 15 120 5 5
7 40.0 69.0 90.0 20.0 580 743 6 10
8 40.0 66.0 90.0 20.0 142 253 7 10
9 38.0 68.0 90.0 20.0 220 359 8 10
10 38.0 70.0 90.0 10.0 499 640 9 10
11 35.0 66.0 90.0 10.0 331 436 10 10
12 35.0 69.0 90.0 10.0 420 533 11 15
13 25.0 85.0 90.0 20.0 617 756 12 15
14 22.0 75.0 90.0 30.0 30 155 13 15
15 22.0 85.0 90.0 10.0 541 646 14 15
16 20.0 80.0 90.0 40.0 362 451 15 15
17 20.0 85.0 90.0 40.0 448 555 16 5
18 18.0 75.0 90.0 20.0 75 172 17 5
19 15.0 75.0 90.0 20.0 142 291 18 5
20 15.0 80.0 90.0 10.0 244 379 19 5
21 30.0 50.0 90.0 10.0 10 137 20 5
22 30.0 52.0 90.0 20.0 888 991 21 10
23 28.0 52.0 90.0 20.0 776 919 22 10
24 28.0 55.0 90.0 10.0 709 800 23 10
25 25.0 50.0 90.0 10.0 25 184 24 10
26 25.0 52.0 90.0 40.0 142 251 25 10
27 25.0 55.0 90.0 10.0 582 741 26 15
28 23.0 52.0 90.0 10.0 234 343 27 15
29 23.0 55.0 90.0 20.0 523 616 28 15
30 20.0 50.0 90.0 10.0 335 428 29 15
31 20.0 55.0 90.0 10.0 422 531 30 15
32 10.0 35.0 90.0 20.0 181 256 31 5
33 10.0 40.0 90.0 30.0 31 170 32 5
34 8.0 40.0 90.0 40.0 52 193 33 5
35 8.0 45.0 90.0 20.0 719 848 34 5
36 5.0 35.0 90.0 10.0 252 375 35 5
37 5.0 45.0 90.0 10.0 639 742 36 10
38 2.0 40.0 90.0 20.0 357 460 37 10
39 0.0 40.0 90.0 30.0 457 544 38 10
40 0.0 45.0 90.0 20.0 538 653 39 10
41 35.0 30.0 90.0 10.0 236 349 40 10
42 35.0 32.0 90.0 10.0 132 269 41 15
43 33.0 32.0 90.0 20.0 27 190 42 15
44 33.0 35.0 90.0 10.0 16 144 43 15
45 32.0 30.0 90.0 10.0 332 439 44 15
46 30.0 30.0 90.0 10.0 512 629 45 15
47 30.0 32.0 90.0 30.0 417 540 46 5
48 30.0 35.0 90.0 10.0 982 1127 47 5
49 28.0 30.0 90.0 10.0 601 724 48 5
50 28.0 35.0 90.0 10.0 969 1098 49 5
51 26.0 32.0 90.0 10.0 783 912 50 5
52 25.0 30.0 90.0 10.0 695 816 51 10
53 25.0 35.0 90.0 10.0 883 998 52 10
54 44.0 5.0 90.0 20.0 255 378 53 10
55 42.0 10.0 90.0 40.0 150 293 54 10
56 42.0 15.0 90.0 10.0 63 190 55 10
57 40.0 5.0 90.0 30.0 359 462 56 15
58 40.0 15.0 90.0 40.0 35 140 57 15
59 38.0 5.0 90.0 30.0 439 566 58 15
60 38.0 15.0 90.0 10.0 607 784 59 15
61 35.0 5.0 90.0 20.0 529 662 60 15
62 50.0 30.0 90.0 10.0 491 650 61 5
63 50.0 35.0 90.0 20.0 235 344 62 5
64 50.0 40.0 90.0 50.0 147 242 63 5
65 48.0 30.0 90.0 10.0 601 724 64 5
66 48.0 40.0 90.0 10.0 50 155 65 5
67 47.0 35.0 90.0 10.0 802 899 66 10
68 47.0 40.0 90.0 10.0 12 143 67 10
69 45.0 30.0 90.0 10.0 712 799 68 10
70 45.0 35.0 90.0 10.0 889 996 69 10
71 95.0 30.0 90.0 30.0 353 490 70 10
72 95.0 35.0 90.0 20.0 260 393 71 15
73 53.0 30.0 90.0 10.0 422 533 72 15
74 92.0 30.0 90.0 10.0 442 587 73 15
75 53.0 35.0 90.0 50.0 323 442 74 15
76 45.0 65.0 90.0 20.0 962 1103 75 15
77 90.0 35.0 90.0 10.0 175 288 76 5
78 88.0 30.0 90.0 10.0 539 678 77 5
79 88.0 35.0 90.0 20.0 78 201 78 5
80 87.0 30.0 90.0 10.0 636 763 79 5
81 85.0 25.0 90.0 10.0 744 845 80 5
82 85.0 35.0 90.0 30.0 47 201 81 10
83 75.0 55.0 90.0 20.0 344 445 82 10
84 72.0 55.0 90.0 10.0 228 375 83 10
85 70.0 58.0 90.0 20.0 425 556 84 10
86 68.0 60.0 90.0 30.0 527 640 85 10
87 66.0 55.0 90.0 10.0 141 270 86 15
88 65.0 55.0 90.0 20.0 56 173 87 15
89 65.0 60.0 90.0 30.0 614 739 88 15
90 63.0 58.0 90.0 10.0 705 834 89 15
91 60.0 55.0 90.0 10.0 20 148 90 15
92 60.0 60.0 90.0 10.0 809 916 91 5
93 67.0 85.0 90.0 20.0 331 478 92 5
94 65.0 85.0 90.0 40.0 453 540 93 5
95 65.0 82.0 90.0 10.0 260 361 94 5
96 62.0 80.0 90.0 30.0 174 261 95 5
97 60.0 80.0 90.0 10.0 64 187 96 10
98 60.0 85.0 90.0 30.0 531 652 97 10
99 58.0 75.0 90.0 20.0 30 139 98 10
100 55.0 80.0 90.0 10.0 705 858 99 10
101 55.0 85.0 90.0 20.0 608 765 100 10